% File represents an instance of a Composite Structure problem to be solved by a CP framework
% Created on 2025-03-26 10:42:03.401
T = 50;
n = 36;
m = 60;
edges = [(1, 2),
(7, 8),
(13, 14),
(19, 20),
(25, 26),
(31, 32),
(2, 3),
(8, 9),
(14, 15),
(20, 21),
(26, 27),
(32, 33),
(3, 4),
(9, 10),
(15, 16),
(21, 22),
(27, 28),
(33, 34),
(4, 5),
(10, 11),
(16, 17),
(22, 23),
(28, 29),
(34, 35),
(6, 5),
(12, 11),
(18, 17),
(24, 23),
(29, 30),
(35, 36),
(7, 1),
(13, 7),
(19, 13),
(25, 19),
(25, 31),
(8, 2),
(14, 8),
(20, 14),
(26, 20),
(26, 32),
(9, 3),
(15, 9),
(21, 15),
(27, 21),
(27, 33),
(10, 4),
(16, 10),
(16, 22),
(28, 22),
(28, 34),
(11, 5),
(17, 11),
(17, 23),
(29, 23),
(35, 29),
(12, 6),
(18, 12),
(18, 24),
(24, 30),
(36, 30)];
counts = [|6, 6, 6, 12,
|6, 4, 6, 12,
|6, 4, 6, 10,
|4, 2, 4, 10,
|4, 2, 4, 4,
|4, 2, 4, 6,
|6, 10, 6, 14,
|6, 6, 6, 14,
|6, 4, 6, 12,
|6, 2, 6, 12,
|6, 2, 6, 6,
|6, 2, 6, 8,
|6, 12, 6, 14,
|6, 8, 6, 14,
|6, 6, 6, 12,
|6, 4, 6, 12,
|6, 4, 6, 8,
|6, 4, 6, 12,
|6, 16, 6, 16,
|6, 10, 6, 16,
|6, 8, 6, 12,
|6, 4, 6, 10,
|6, 2, 6, 8,
|6, 4, 6, 10,
|6, 20, 6, 18,
|6, 14, 6, 18,
|6, 12, 6, 14,
|6, 10, 6, 10,
|6, 6, 6, 8,
|6, 4, 6, 6,
|6, 14, 6, 18,
|6, 12, 6, 14,
|6, 10, 6, 12,
|6, 8, 6, 10,
|6, 6, 6, 10,
|6, 6, 6, 6|];
